; Benchmark for LTL-sketching problem
(set-logic QF_UF)
(set-info :status unknown)
(declare-fun z_0_0_0 () Bool)
(declare-fun z_0_1_0 () Bool)
(declare-fun z_0_2_0 () Bool)
(declare-fun z_0_3_0 () Bool)
(declare-fun z_0_4_0 () Bool)
(declare-fun z_0_5_0 () Bool)
(declare-fun z_0_6_0 () Bool)
(declare-fun z_0_7_0 () Bool)
(declare-fun z_0_8_0 () Bool)
(declare-fun z_0_9_0 () Bool)
(declare-fun z_0_10_0 () Bool)
(declare-fun z_0_11_0 () Bool)
(declare-fun z_0_12_0 () Bool)
(declare-fun z_0_13_0 () Bool)
(declare-fun z_0_14_0 () Bool)
(declare-fun z_0_15_0 () Bool)
(declare-fun z_0_16_0 () Bool)
(declare-fun z_0_17_0 () Bool)
(declare-fun z_0_18_0 () Bool)
(declare-fun z_0_19_0 () Bool)
(declare-fun z_2_0_10 () Bool)
(declare-fun z_2_0_9 () Bool)
(declare-fun z_2_0_8 () Bool)
(declare-fun z_2_0_7 () Bool)
(declare-fun z_2_0_6 () Bool)
(declare-fun z_2_0_5 () Bool)
(declare-fun z_2_0_4 () Bool)
(declare-fun z_2_0_3 () Bool)
(declare-fun z_2_0_2 () Bool)
(declare-fun z_2_0_1 () Bool)
(declare-fun z_2_0_0 () Bool)
(declare-fun z_0_0_1 () Bool)
(declare-fun z_0_0_2 () Bool)
(declare-fun z_0_0_3 () Bool)
(declare-fun z_0_0_4 () Bool)
(declare-fun z_0_0_5 () Bool)
(declare-fun z_0_0_6 () Bool)
(declare-fun z_0_0_7 () Bool)
(declare-fun z_0_0_8 () Bool)
(declare-fun z_0_0_9 () Bool)
(declare-fun z_0_0_10 () Bool)
(declare-fun z_2_1_7 () Bool)
(declare-fun z_2_1_6 () Bool)
(declare-fun z_2_1_5 () Bool)
(declare-fun z_2_1_4 () Bool)
(declare-fun z_2_1_3 () Bool)
(declare-fun z_2_1_2 () Bool)
(declare-fun z_2_1_1 () Bool)
(declare-fun z_2_1_0 () Bool)
(declare-fun z_0_1_1 () Bool)
(declare-fun z_0_1_2 () Bool)
(declare-fun z_0_1_3 () Bool)
(declare-fun z_0_1_4 () Bool)
(declare-fun z_0_1_5 () Bool)
(declare-fun z_0_1_6 () Bool)
(declare-fun z_0_1_7 () Bool)
(declare-fun z_2_2_10 () Bool)
(declare-fun z_2_2_9 () Bool)
(declare-fun z_2_2_8 () Bool)
(declare-fun z_2_2_7 () Bool)
(declare-fun z_2_2_6 () Bool)
(declare-fun z_2_2_5 () Bool)
(declare-fun z_2_2_4 () Bool)
(declare-fun z_2_2_3 () Bool)
(declare-fun z_2_2_2 () Bool)
(declare-fun z_2_2_1 () Bool)
(declare-fun z_2_2_0 () Bool)
(declare-fun z_0_2_1 () Bool)
(declare-fun z_0_2_2 () Bool)
(declare-fun z_0_2_3 () Bool)
(declare-fun z_0_2_4 () Bool)
(declare-fun z_0_2_5 () Bool)
(declare-fun z_0_2_6 () Bool)
(declare-fun z_0_2_7 () Bool)
(declare-fun z_0_2_8 () Bool)
(declare-fun z_0_2_9 () Bool)
(declare-fun z_0_2_10 () Bool)
(declare-fun z_2_3_10 () Bool)
(declare-fun z_2_3_9 () Bool)
(declare-fun z_2_3_8 () Bool)
(declare-fun z_2_3_7 () Bool)
(declare-fun z_2_3_6 () Bool)
(declare-fun z_2_3_5 () Bool)
(declare-fun z_2_3_4 () Bool)
(declare-fun z_2_3_3 () Bool)
(declare-fun z_2_3_2 () Bool)
(declare-fun z_2_3_1 () Bool)
(declare-fun z_2_3_0 () Bool)
(declare-fun z_0_3_1 () Bool)
(declare-fun z_0_3_2 () Bool)
(declare-fun z_0_3_3 () Bool)
(declare-fun z_0_3_4 () Bool)
(declare-fun z_0_3_5 () Bool)
(declare-fun z_0_3_6 () Bool)
(declare-fun z_0_3_7 () Bool)
(declare-fun z_0_3_8 () Bool)
(declare-fun z_0_3_9 () Bool)
(declare-fun z_0_3_10 () Bool)
(declare-fun z_2_4_8 () Bool)
(declare-fun z_2_4_7 () Bool)
(declare-fun z_2_4_6 () Bool)
(declare-fun z_2_4_5 () Bool)
(declare-fun z_2_4_4 () Bool)
(declare-fun z_2_4_3 () Bool)
(declare-fun z_2_4_2 () Bool)
(declare-fun z_2_4_1 () Bool)
(declare-fun z_2_4_0 () Bool)
(declare-fun z_0_4_1 () Bool)
(declare-fun z_0_4_2 () Bool)
(declare-fun z_0_4_3 () Bool)
(declare-fun z_0_4_4 () Bool)
(declare-fun z_0_4_5 () Bool)
(declare-fun z_0_4_6 () Bool)
(declare-fun z_0_4_7 () Bool)
(declare-fun z_0_4_8 () Bool)
(declare-fun z_2_5_3 () Bool)
(declare-fun z_2_5_2 () Bool)
(declare-fun z_2_5_1 () Bool)
(declare-fun z_2_5_0 () Bool)
(declare-fun z_0_5_1 () Bool)
(declare-fun z_0_5_2 () Bool)
(declare-fun z_0_5_3 () Bool)
(declare-fun z_2_6_8 () Bool)
(declare-fun z_2_6_7 () Bool)
(declare-fun z_2_6_6 () Bool)
(declare-fun z_2_6_5 () Bool)
(declare-fun z_2_6_4 () Bool)
(declare-fun z_2_6_3 () Bool)
(declare-fun z_2_6_2 () Bool)
(declare-fun z_2_6_1 () Bool)
(declare-fun z_2_6_0 () Bool)
(declare-fun z_0_6_1 () Bool)
(declare-fun z_0_6_2 () Bool)
(declare-fun z_0_6_3 () Bool)
(declare-fun z_0_6_4 () Bool)
(declare-fun z_0_6_5 () Bool)
(declare-fun z_0_6_6 () Bool)
(declare-fun z_0_6_7 () Bool)
(declare-fun z_0_6_8 () Bool)
(declare-fun z_2_7_9 () Bool)
(declare-fun z_2_7_8 () Bool)
(declare-fun z_2_7_7 () Bool)
(declare-fun z_2_7_6 () Bool)
(declare-fun z_2_7_5 () Bool)
(declare-fun z_2_7_4 () Bool)
(declare-fun z_2_7_3 () Bool)
(declare-fun z_2_7_2 () Bool)
(declare-fun z_2_7_1 () Bool)
(declare-fun z_2_7_0 () Bool)
(declare-fun z_0_7_1 () Bool)
(declare-fun z_0_7_2 () Bool)
(declare-fun z_0_7_3 () Bool)
(declare-fun z_0_7_4 () Bool)
(declare-fun z_0_7_5 () Bool)
(declare-fun z_0_7_6 () Bool)
(declare-fun z_0_7_7 () Bool)
(declare-fun z_0_7_8 () Bool)
(declare-fun z_0_7_9 () Bool)
(declare-fun z_2_8_10 () Bool)
(declare-fun z_2_8_9 () Bool)
(declare-fun z_2_8_8 () Bool)
(declare-fun z_2_8_7 () Bool)
(declare-fun z_2_8_6 () Bool)
(declare-fun z_2_8_5 () Bool)
(declare-fun z_2_8_4 () Bool)
(declare-fun z_2_8_3 () Bool)
(declare-fun z_2_8_2 () Bool)
(declare-fun z_2_8_1 () Bool)
(declare-fun z_2_8_0 () Bool)
(declare-fun z_0_8_1 () Bool)
(declare-fun z_0_8_2 () Bool)
(declare-fun z_0_8_3 () Bool)
(declare-fun z_0_8_4 () Bool)
(declare-fun z_0_8_5 () Bool)
(declare-fun z_0_8_6 () Bool)
(declare-fun z_0_8_7 () Bool)
(declare-fun z_0_8_8 () Bool)
(declare-fun z_0_8_9 () Bool)
(declare-fun z_0_8_10 () Bool)
(declare-fun z_2_9_7 () Bool)
(declare-fun z_2_9_6 () Bool)
(declare-fun z_2_9_5 () Bool)
(declare-fun z_2_9_4 () Bool)
(declare-fun z_2_9_3 () Bool)
(declare-fun z_2_9_2 () Bool)
(declare-fun z_2_9_1 () Bool)
(declare-fun z_2_9_0 () Bool)
(declare-fun z_0_9_1 () Bool)
(declare-fun z_0_9_2 () Bool)
(declare-fun z_0_9_3 () Bool)
(declare-fun z_0_9_4 () Bool)
(declare-fun z_0_9_5 () Bool)
(declare-fun z_0_9_6 () Bool)
(declare-fun z_0_9_7 () Bool)
(declare-fun z_2_10_0 () Bool)
(declare-fun z_2_11_0 () Bool)
(declare-fun z_2_12_0 () Bool)
(declare-fun z_2_13_0 () Bool)
(declare-fun z_2_14_0 () Bool)
(declare-fun z_2_15_0 () Bool)
(declare-fun z_2_16_0 () Bool)
(declare-fun z_2_17_0 () Bool)
(declare-fun z_2_18_0 () Bool)
(declare-fun z_2_19_0 () Bool)
(declare-fun x_2_p () Bool)
(declare-fun x_2_-> () Bool)
(declare-fun x_2_U () Bool)
(declare-fun x_2_v () Bool)
(declare-fun x_2_& () Bool)
(declare-fun x_2_X () Bool)
(declare-fun x_2_! () Bool)
(declare-fun x_2_F () Bool)
(declare-fun x_2_G () Bool)
(assert
 (= z_0_0_0 true))
(assert
 (= z_0_1_0 true))
(assert
 (= z_0_2_0 true))
(assert
 (= z_0_3_0 true))
(assert
 (= z_0_4_0 true))
(assert
 (= z_0_5_0 true))
(assert
 (= z_0_6_0 true))
(assert
 (= z_0_7_0 true))
(assert
 (= z_0_8_0 true))
(assert
 (= z_0_9_0 true))
(assert
 (= z_0_10_0 false))
(assert
 (= z_0_11_0 false))
(assert
 (= z_0_12_0 false))
(assert
 (= z_0_13_0 false))
(assert
 (= z_0_14_0 false))
(assert
 (= z_0_15_0 false))
(assert
 (= z_0_16_0 false))
(assert
 (= z_0_17_0 false))
(assert
 (= z_0_18_0 false))
(assert
 (= z_0_19_0 false))
(assert
 (let (($x1714 (or z_2_0_0 z_2_0_1 z_2_0_2 z_2_0_3 z_2_0_4 z_2_0_5 z_2_0_6 z_2_0_7 z_2_0_8 z_2_0_9 z_2_0_10)))
 (= z_0_0_0 $x1714)))
(assert
 (let (($x1716 (or z_2_0_1 z_2_0_2 z_2_0_3 z_2_0_4 z_2_0_5 z_2_0_6 z_2_0_7 z_2_0_8 z_2_0_9 z_2_0_10)))
 (= z_0_0_1 $x1716)))
(assert
 (let (($x1718 (or z_2_0_2 z_2_0_3 z_2_0_4 z_2_0_5 z_2_0_6 z_2_0_7 z_2_0_8 z_2_0_9 z_2_0_10)))
 (= z_0_0_2 $x1718)))
(assert
 (let (($x1720 (or z_2_0_3 z_2_0_4 z_2_0_5 z_2_0_6 z_2_0_7 z_2_0_8 z_2_0_9 z_2_0_10)))
 (= z_0_0_3 $x1720)))
(assert
 (let (($x1722 (or z_2_0_4 z_2_0_5 z_2_0_6 z_2_0_7 z_2_0_8 z_2_0_9 z_2_0_10)))
 (= z_0_0_4 $x1722)))
(assert
 (let (($x1724 (or z_2_0_5 z_2_0_6 z_2_0_7 z_2_0_8 z_2_0_9 z_2_0_10)))
 (= z_0_0_5 $x1724)))
(assert
 (let (($x1724 (or z_2_0_5 z_2_0_6 z_2_0_7 z_2_0_8 z_2_0_9 z_2_0_10)))
 (= z_0_0_6 $x1724)))
(assert
 (let (($x1724 (or z_2_0_5 z_2_0_6 z_2_0_7 z_2_0_8 z_2_0_9 z_2_0_10)))
 (= z_0_0_7 $x1724)))
(assert
 (let (($x1724 (or z_2_0_5 z_2_0_6 z_2_0_7 z_2_0_8 z_2_0_9 z_2_0_10)))
 (= z_0_0_8 $x1724)))
(assert
 (let (($x1724 (or z_2_0_5 z_2_0_6 z_2_0_7 z_2_0_8 z_2_0_9 z_2_0_10)))
 (= z_0_0_9 $x1724)))
(assert
 (let (($x1724 (or z_2_0_5 z_2_0_6 z_2_0_7 z_2_0_8 z_2_0_9 z_2_0_10)))
 (= z_0_0_10 $x1724)))
(assert
 (let (($x1739 (or z_2_1_0 z_2_1_1 z_2_1_2 z_2_1_3 z_2_1_4 z_2_1_5 z_2_1_6 z_2_1_7)))
 (= z_0_1_0 $x1739)))
(assert
 (let (($x1741 (or z_2_1_1 z_2_1_2 z_2_1_3 z_2_1_4 z_2_1_5 z_2_1_6 z_2_1_7)))
 (= z_0_1_1 $x1741)))
(assert
 (= z_0_1_2 (or z_2_1_2 z_2_1_3 z_2_1_4 z_2_1_5 z_2_1_6 z_2_1_7)))
(assert
 (let (($x1745 (or z_2_1_3 z_2_1_4 z_2_1_5 z_2_1_6 z_2_1_7)))
 (= z_0_1_3 $x1745)))
(assert
 (let (($x1745 (or z_2_1_3 z_2_1_4 z_2_1_5 z_2_1_6 z_2_1_7)))
 (= z_0_1_4 $x1745)))
(assert
 (let (($x1745 (or z_2_1_3 z_2_1_4 z_2_1_5 z_2_1_6 z_2_1_7)))
 (= z_0_1_5 $x1745)))
(assert
 (let (($x1745 (or z_2_1_3 z_2_1_4 z_2_1_5 z_2_1_6 z_2_1_7)))
 (= z_0_1_6 $x1745)))
(assert
 (let (($x1745 (or z_2_1_3 z_2_1_4 z_2_1_5 z_2_1_6 z_2_1_7)))
 (= z_0_1_7 $x1745)))
(assert
 (let (($x1762 (or z_2_2_0 z_2_2_1 z_2_2_2 z_2_2_3 z_2_2_4 z_2_2_5 z_2_2_6 z_2_2_7 z_2_2_8 z_2_2_9 z_2_2_10)))
 (= z_0_2_0 $x1762)))
(assert
 (let (($x1764 (or z_2_2_1 z_2_2_2 z_2_2_3 z_2_2_4 z_2_2_5 z_2_2_6 z_2_2_7 z_2_2_8 z_2_2_9 z_2_2_10)))
 (= z_0_2_1 $x1764)))
(assert
 (let (($x1766 (or z_2_2_2 z_2_2_3 z_2_2_4 z_2_2_5 z_2_2_6 z_2_2_7 z_2_2_8 z_2_2_9 z_2_2_10)))
 (= z_0_2_2 $x1766)))
(assert
 (let (($x1768 (or z_2_2_3 z_2_2_4 z_2_2_5 z_2_2_6 z_2_2_7 z_2_2_8 z_2_2_9 z_2_2_10)))
 (= z_0_2_3 $x1768)))
(assert
 (let (($x1770 (or z_2_2_4 z_2_2_5 z_2_2_6 z_2_2_7 z_2_2_8 z_2_2_9 z_2_2_10)))
 (= z_0_2_4 $x1770)))
(assert
 (let (($x1772 (or z_2_2_5 z_2_2_6 z_2_2_7 z_2_2_8 z_2_2_9 z_2_2_10)))
 (= z_0_2_5 $x1772)))
(assert
 (let (($x1772 (or z_2_2_5 z_2_2_6 z_2_2_7 z_2_2_8 z_2_2_9 z_2_2_10)))
 (= z_0_2_6 $x1772)))
(assert
 (let (($x1772 (or z_2_2_5 z_2_2_6 z_2_2_7 z_2_2_8 z_2_2_9 z_2_2_10)))
 (= z_0_2_7 $x1772)))
(assert
 (let (($x1772 (or z_2_2_5 z_2_2_6 z_2_2_7 z_2_2_8 z_2_2_9 z_2_2_10)))
 (= z_0_2_8 $x1772)))
(assert
 (let (($x1772 (or z_2_2_5 z_2_2_6 z_2_2_7 z_2_2_8 z_2_2_9 z_2_2_10)))
 (= z_0_2_9 $x1772)))
(assert
 (let (($x1772 (or z_2_2_5 z_2_2_6 z_2_2_7 z_2_2_8 z_2_2_9 z_2_2_10)))
 (= z_0_2_10 $x1772)))
(assert
 (let (($x1790 (or z_2_3_0 z_2_3_1 z_2_3_2 z_2_3_3 z_2_3_4 z_2_3_5 z_2_3_6 z_2_3_7 z_2_3_8 z_2_3_9 z_2_3_10)))
 (= z_0_3_0 $x1790)))
(assert
 (let (($x1792 (or z_2_3_1 z_2_3_2 z_2_3_3 z_2_3_4 z_2_3_5 z_2_3_6 z_2_3_7 z_2_3_8 z_2_3_9 z_2_3_10)))
 (= z_0_3_1 $x1792)))
(assert
 (let (($x1794 (or z_2_3_2 z_2_3_3 z_2_3_4 z_2_3_5 z_2_3_6 z_2_3_7 z_2_3_8 z_2_3_9 z_2_3_10)))
 (= z_0_3_2 $x1794)))
(assert
 (let (($x1796 (or z_2_3_3 z_2_3_4 z_2_3_5 z_2_3_6 z_2_3_7 z_2_3_8 z_2_3_9 z_2_3_10)))
 (= z_0_3_3 $x1796)))
(assert
 (let (($x1798 (or z_2_3_4 z_2_3_5 z_2_3_6 z_2_3_7 z_2_3_8 z_2_3_9 z_2_3_10)))
 (= z_0_3_4 $x1798)))
(assert
 (let (($x1800 (or z_2_3_5 z_2_3_6 z_2_3_7 z_2_3_8 z_2_3_9 z_2_3_10)))
 (= z_0_3_5 $x1800)))
(assert
 (let (($x1800 (or z_2_3_5 z_2_3_6 z_2_3_7 z_2_3_8 z_2_3_9 z_2_3_10)))
 (= z_0_3_6 $x1800)))
(assert
 (let (($x1800 (or z_2_3_5 z_2_3_6 z_2_3_7 z_2_3_8 z_2_3_9 z_2_3_10)))
 (= z_0_3_7 $x1800)))
(assert
 (let (($x1800 (or z_2_3_5 z_2_3_6 z_2_3_7 z_2_3_8 z_2_3_9 z_2_3_10)))
 (= z_0_3_8 $x1800)))
(assert
 (let (($x1800 (or z_2_3_5 z_2_3_6 z_2_3_7 z_2_3_8 z_2_3_9 z_2_3_10)))
 (= z_0_3_9 $x1800)))
(assert
 (let (($x1800 (or z_2_3_5 z_2_3_6 z_2_3_7 z_2_3_8 z_2_3_9 z_2_3_10)))
 (= z_0_3_10 $x1800)))
(assert
 (let (($x1816 (or z_2_4_0 z_2_4_1 z_2_4_2 z_2_4_3 z_2_4_4 z_2_4_5 z_2_4_6 z_2_4_7 z_2_4_8)))
 (= z_0_4_0 $x1816)))
(assert
 (let (($x1818 (or z_2_4_1 z_2_4_2 z_2_4_3 z_2_4_4 z_2_4_5 z_2_4_6 z_2_4_7 z_2_4_8)))
 (= z_0_4_1 $x1818)))
(assert
 (let (($x1820 (or z_2_4_2 z_2_4_3 z_2_4_4 z_2_4_5 z_2_4_6 z_2_4_7 z_2_4_8)))
 (= z_0_4_2 $x1820)))
(assert
 (= z_0_4_3 (or z_2_4_3 z_2_4_4 z_2_4_5 z_2_4_6 z_2_4_7 z_2_4_8)))
(assert
 (let (($x1824 (or z_2_4_4 z_2_4_5 z_2_4_6 z_2_4_7 z_2_4_8)))
 (= z_0_4_4 $x1824)))
(assert
 (let (($x1824 (or z_2_4_4 z_2_4_5 z_2_4_6 z_2_4_7 z_2_4_8)))
 (= z_0_4_5 $x1824)))
(assert
 (let (($x1824 (or z_2_4_4 z_2_4_5 z_2_4_6 z_2_4_7 z_2_4_8)))
 (= z_0_4_6 $x1824)))
(assert
 (let (($x1824 (or z_2_4_4 z_2_4_5 z_2_4_6 z_2_4_7 z_2_4_8)))
 (= z_0_4_7 $x1824)))
(assert
 (let (($x1824 (or z_2_4_4 z_2_4_5 z_2_4_6 z_2_4_7 z_2_4_8)))
 (= z_0_4_8 $x1824)))
(assert
 (= z_0_5_0 (or z_2_5_0 z_2_5_1 z_2_5_2 z_2_5_3)))
(assert
 (= z_0_5_1 (or z_2_5_1 z_2_5_2 z_2_5_3)))
(assert
 (= z_0_5_2 (or z_2_5_2 z_2_5_3)))
(assert
 (= z_0_5_3 (or z_2_5_3)))
(assert
 (let (($x1852 (or z_2_6_0 z_2_6_1 z_2_6_2 z_2_6_3 z_2_6_4 z_2_6_5 z_2_6_6 z_2_6_7 z_2_6_8)))
 (= z_0_6_0 $x1852)))
(assert
 (let (($x1854 (or z_2_6_1 z_2_6_2 z_2_6_3 z_2_6_4 z_2_6_5 z_2_6_6 z_2_6_7 z_2_6_8)))
 (= z_0_6_1 $x1854)))
(assert
 (let (($x1856 (or z_2_6_2 z_2_6_3 z_2_6_4 z_2_6_5 z_2_6_6 z_2_6_7 z_2_6_8)))
 (= z_0_6_2 $x1856)))
(assert
 (= z_0_6_3 (or z_2_6_3 z_2_6_4 z_2_6_5 z_2_6_6 z_2_6_7 z_2_6_8)))
(assert
 (let (($x1860 (or z_2_6_4 z_2_6_5 z_2_6_6 z_2_6_7 z_2_6_8)))
 (= z_0_6_4 $x1860)))
(assert
 (let (($x1860 (or z_2_6_4 z_2_6_5 z_2_6_6 z_2_6_7 z_2_6_8)))
 (= z_0_6_5 $x1860)))
(assert
 (let (($x1860 (or z_2_6_4 z_2_6_5 z_2_6_6 z_2_6_7 z_2_6_8)))
 (= z_0_6_6 $x1860)))
(assert
 (let (($x1860 (or z_2_6_4 z_2_6_5 z_2_6_6 z_2_6_7 z_2_6_8)))
 (= z_0_6_7 $x1860)))
(assert
 (let (($x1860 (or z_2_6_4 z_2_6_5 z_2_6_6 z_2_6_7 z_2_6_8)))
 (= z_0_6_8 $x1860)))
(assert
 (let (($x1876 (or z_2_7_0 z_2_7_1 z_2_7_2 z_2_7_3 z_2_7_4 z_2_7_5 z_2_7_6 z_2_7_7 z_2_7_8 z_2_7_9)))
 (= z_0_7_0 $x1876)))
(assert
 (let (($x1878 (or z_2_7_1 z_2_7_2 z_2_7_3 z_2_7_4 z_2_7_5 z_2_7_6 z_2_7_7 z_2_7_8 z_2_7_9)))
 (= z_0_7_1 $x1878)))
(assert
 (let (($x1880 (or z_2_7_2 z_2_7_3 z_2_7_4 z_2_7_5 z_2_7_6 z_2_7_7 z_2_7_8 z_2_7_9)))
 (= z_0_7_2 $x1880)))
(assert
 (let (($x1882 (or z_2_7_3 z_2_7_4 z_2_7_5 z_2_7_6 z_2_7_7 z_2_7_8 z_2_7_9)))
 (= z_0_7_3 $x1882)))
(assert
 (= z_0_7_4 (or z_2_7_4 z_2_7_5 z_2_7_6 z_2_7_7 z_2_7_8 z_2_7_9)))
(assert
 (= z_0_7_5 (or z_2_7_5 z_2_7_6 z_2_7_7 z_2_7_8 z_2_7_9)))
(assert
 (let (($x1888 (or z_2_7_6 z_2_7_7 z_2_7_8 z_2_7_9)))
 (= z_0_7_6 $x1888)))
(assert
 (let (($x1888 (or z_2_7_6 z_2_7_7 z_2_7_8 z_2_7_9)))
 (= z_0_7_7 $x1888)))
(assert
 (let (($x1888 (or z_2_7_6 z_2_7_7 z_2_7_8 z_2_7_9)))
 (= z_0_7_8 $x1888)))
(assert
 (let (($x1888 (or z_2_7_6 z_2_7_7 z_2_7_8 z_2_7_9)))
 (= z_0_7_9 $x1888)))
(assert
 (let (($x1904 (or z_2_8_0 z_2_8_1 z_2_8_2 z_2_8_3 z_2_8_4 z_2_8_5 z_2_8_6 z_2_8_7 z_2_8_8 z_2_8_9 z_2_8_10)))
 (= z_0_8_0 $x1904)))
(assert
 (let (($x1906 (or z_2_8_1 z_2_8_2 z_2_8_3 z_2_8_4 z_2_8_5 z_2_8_6 z_2_8_7 z_2_8_8 z_2_8_9 z_2_8_10)))
 (= z_0_8_1 $x1906)))
(assert
 (let (($x1908 (or z_2_8_2 z_2_8_3 z_2_8_4 z_2_8_5 z_2_8_6 z_2_8_7 z_2_8_8 z_2_8_9 z_2_8_10)))
 (= z_0_8_2 $x1908)))
(assert
 (let (($x1910 (or z_2_8_3 z_2_8_4 z_2_8_5 z_2_8_6 z_2_8_7 z_2_8_8 z_2_8_9 z_2_8_10)))
 (= z_0_8_3 $x1910)))
(assert
 (let (($x1912 (or z_2_8_4 z_2_8_5 z_2_8_6 z_2_8_7 z_2_8_8 z_2_8_9 z_2_8_10)))
 (= z_0_8_4 $x1912)))
(assert
 (let (($x1914 (or z_2_8_5 z_2_8_6 z_2_8_7 z_2_8_8 z_2_8_9 z_2_8_10)))
 (= z_0_8_5 $x1914)))
(assert
 (let (($x1914 (or z_2_8_5 z_2_8_6 z_2_8_7 z_2_8_8 z_2_8_9 z_2_8_10)))
 (= z_0_8_6 $x1914)))
(assert
 (let (($x1914 (or z_2_8_5 z_2_8_6 z_2_8_7 z_2_8_8 z_2_8_9 z_2_8_10)))
 (= z_0_8_7 $x1914)))
(assert
 (let (($x1914 (or z_2_8_5 z_2_8_6 z_2_8_7 z_2_8_8 z_2_8_9 z_2_8_10)))
 (= z_0_8_8 $x1914)))
(assert
 (let (($x1914 (or z_2_8_5 z_2_8_6 z_2_8_7 z_2_8_8 z_2_8_9 z_2_8_10)))
 (= z_0_8_9 $x1914)))
(assert
 (let (($x1914 (or z_2_8_5 z_2_8_6 z_2_8_7 z_2_8_8 z_2_8_9 z_2_8_10)))
 (= z_0_8_10 $x1914)))
(assert
 (let (($x1929 (or z_2_9_0 z_2_9_1 z_2_9_2 z_2_9_3 z_2_9_4 z_2_9_5 z_2_9_6 z_2_9_7)))
 (= z_0_9_0 $x1929)))
(assert
 (let (($x1931 (or z_2_9_1 z_2_9_2 z_2_9_3 z_2_9_4 z_2_9_5 z_2_9_6 z_2_9_7)))
 (= z_0_9_1 $x1931)))
(assert
 (= z_0_9_2 (or z_2_9_2 z_2_9_3 z_2_9_4 z_2_9_5 z_2_9_6 z_2_9_7)))
(assert
 (= z_0_9_3 (or z_2_9_3 z_2_9_4 z_2_9_5 z_2_9_6 z_2_9_7)))
(assert
 (let (($x1937 (or z_2_9_4 z_2_9_5 z_2_9_6 z_2_9_7)))
 (= z_0_9_4 $x1937)))
(assert
 (let (($x1937 (or z_2_9_4 z_2_9_5 z_2_9_6 z_2_9_7)))
 (= z_0_9_5 $x1937)))
(assert
 (let (($x1937 (or z_2_9_4 z_2_9_5 z_2_9_6 z_2_9_7)))
 (= z_0_9_6 $x1937)))
(assert
 (let (($x1937 (or z_2_9_4 z_2_9_5 z_2_9_6 z_2_9_7)))
 (= z_0_9_7 $x1937)))
(assert
 (= z_0_10_0 (or z_2_10_0)))
(assert
 (= z_0_11_0 (or z_2_11_0)))
(assert
 (= z_0_12_0 (or z_2_12_0)))
(assert
 (= z_0_13_0 (or z_2_13_0)))
(assert
 (= z_0_14_0 (or z_2_14_0)))
(assert
 (= z_0_15_0 (or z_2_15_0)))
(assert
 (= z_0_16_0 (or z_2_16_0)))
(assert
 (= z_0_17_0 (or z_2_17_0)))
(assert
 (= z_0_18_0 (or z_2_18_0)))
(assert
 (= z_0_19_0 (or z_2_19_0)))
(assert
 (and true true))
(assert
 (=> x_2_p z_2_0_0))
(assert
 (let (($x2005 (not z_2_0_1)))
 (=> x_2_p $x2005)))
(assert
 (let (($x2008 (not z_2_0_2)))
 (=> x_2_p $x2008)))
(assert
 (let (($x2011 (not z_2_0_3)))
 (=> x_2_p $x2011)))
(assert
 (=> x_2_p z_2_0_4))
(assert
 (=> x_2_p z_2_0_5))
(assert
 (=> x_2_p z_2_0_6))
(assert
 (=> x_2_p z_2_0_7))
(assert
 (=> x_2_p z_2_0_8))
(assert
 (let (($x2024 (not z_2_0_9)))
 (=> x_2_p $x2024)))
(assert
 (let (($x2027 (not z_2_0_10)))
 (=> x_2_p $x2027)))
(assert
 (let (($x2030 (not z_2_1_0)))
 (=> x_2_p $x2030)))
(assert
 (let (($x2033 (not z_2_1_1)))
 (=> x_2_p $x2033)))
(assert
 (=> x_2_p z_2_1_2))
(assert
 (let (($x2038 (not z_2_1_3)))
 (=> x_2_p $x2038)))
(assert
 (=> x_2_p z_2_1_4))
(assert
 (=> x_2_p z_2_1_5))
(assert
 (let (($x2045 (not z_2_1_6)))
 (=> x_2_p $x2045)))
(assert
 (let (($x2048 (not z_2_1_7)))
 (=> x_2_p $x2048)))
(assert
 (=> x_2_p z_2_2_0))
(assert
 (let (($x2053 (not z_2_2_1)))
 (=> x_2_p $x2053)))
(assert
 (=> x_2_p z_2_2_2))
(assert
 (=> x_2_p z_2_2_3))
(assert
 (=> x_2_p z_2_2_4))
(assert
 (=> x_2_p z_2_2_5))
(assert
 (let (($x2064 (not z_2_2_6)))
 (=> x_2_p $x2064)))
(assert
 (let (($x2067 (not z_2_2_7)))
 (=> x_2_p $x2067)))
(assert
 (let (($x2070 (not z_2_2_8)))
 (=> x_2_p $x2070)))
(assert
 (=> x_2_p z_2_2_9))
(assert
 (let (($x2075 (not z_2_2_10)))
 (=> x_2_p $x2075)))
(assert
 (=> x_2_p z_2_3_0))
(assert
 (=> x_2_p z_2_3_1))
(assert
 (=> x_2_p z_2_3_2))
(assert
 (let (($x2084 (not z_2_3_3)))
 (=> x_2_p $x2084)))
(assert
 (=> x_2_p z_2_3_4))
(assert
 (=> x_2_p z_2_3_5))
(assert
 (let (($x2091 (not z_2_3_6)))
 (=> x_2_p $x2091)))
(assert
 (let (($x2094 (not z_2_3_7)))
 (=> x_2_p $x2094)))
(assert
 (let (($x2097 (not z_2_3_8)))
 (=> x_2_p $x2097)))
(assert
 (=> x_2_p z_2_3_9))
(assert
 (let (($x2102 (not z_2_3_10)))
 (=> x_2_p $x2102)))
(assert
 (=> x_2_p z_2_4_0))
(assert
 (=> x_2_p z_2_4_1))
(assert
 (let (($x2109 (not z_2_4_2)))
 (=> x_2_p $x2109)))
(assert
 (=> x_2_p z_2_4_3))
(assert
 (let (($x2114 (not z_2_4_4)))
 (=> x_2_p $x2114)))
(assert
 (let (($x2117 (not z_2_4_5)))
 (=> x_2_p $x2117)))
(assert
 (=> x_2_p z_2_4_6))
(assert
 (=> x_2_p z_2_4_7))
(assert
 (let (($x2124 (not z_2_4_8)))
 (=> x_2_p $x2124)))
(assert
 (let (($x2127 (not z_2_5_0)))
 (=> x_2_p $x2127)))
(assert
 (=> x_2_p z_2_5_1))
(assert
 (=> x_2_p z_2_5_2))
(assert
 (let (($x2134 (not z_2_5_3)))
 (=> x_2_p $x2134)))
(assert
 (=> x_2_p z_2_6_0))
(assert
 (let (($x2139 (not z_2_6_1)))
 (=> x_2_p $x2139)))
(assert
 (=> x_2_p z_2_6_2))
(assert
 (let (($x2144 (not z_2_6_3)))
 (=> x_2_p $x2144)))
(assert
 (let (($x2147 (not z_2_6_4)))
 (=> x_2_p $x2147)))
(assert
 (let (($x2150 (not z_2_6_5)))
 (=> x_2_p $x2150)))
(assert
 (let (($x2153 (not z_2_6_6)))
 (=> x_2_p $x2153)))
(assert
 (=> x_2_p z_2_6_7))
(assert
 (=> x_2_p z_2_6_8))
(assert
 (let (($x2160 (not z_2_7_0)))
 (=> x_2_p $x2160)))
(assert
 (let (($x2163 (not z_2_7_1)))
 (=> x_2_p $x2163)))
(assert
 (let (($x2166 (not z_2_7_2)))
 (=> x_2_p $x2166)))
(assert
 (=> x_2_p z_2_7_3))
(assert
 (let (($x2171 (not z_2_7_4)))
 (=> x_2_p $x2171)))
(assert
 (let (($x2174 (not z_2_7_5)))
 (=> x_2_p $x2174)))
(assert
 (=> x_2_p z_2_7_6))
(assert
 (let (($x2179 (not z_2_7_7)))
 (=> x_2_p $x2179)))
(assert
 (=> x_2_p z_2_7_8))
(assert
 (=> x_2_p z_2_7_9))
(assert
 (=> x_2_p z_2_8_0))
(assert
 (=> x_2_p z_2_8_1))
(assert
 (let (($x2190 (not z_2_8_2)))
 (=> x_2_p $x2190)))
(assert
 (let (($x2193 (not z_2_8_3)))
 (=> x_2_p $x2193)))
(assert
 (let (($x2196 (not z_2_8_4)))
 (=> x_2_p $x2196)))
(assert
 (=> x_2_p z_2_8_5))
(assert
 (let (($x2201 (not z_2_8_6)))
 (=> x_2_p $x2201)))
(assert
 (let (($x2204 (not z_2_8_7)))
 (=> x_2_p $x2204)))
(assert
 (let (($x2207 (not z_2_8_8)))
 (=> x_2_p $x2207)))
(assert
 (=> x_2_p z_2_8_9))
(assert
 (=> x_2_p z_2_8_10))
(assert
 (=> x_2_p z_2_9_0))
(assert
 (let (($x2216 (not z_2_9_1)))
 (=> x_2_p $x2216)))
(assert
 (let (($x2219 (not z_2_9_2)))
 (=> x_2_p $x2219)))
(assert
 (=> x_2_p z_2_9_3))
(assert
 (=> x_2_p z_2_9_4))
(assert
 (=> x_2_p z_2_9_5))
(assert
 (=> x_2_p z_2_9_6))
(assert
 (let (($x2230 (not z_2_9_7)))
 (=> x_2_p $x2230)))
(assert
 (let (($x2233 (not z_2_10_0)))
 (=> x_2_p $x2233)))
(assert
 (let (($x2236 (not z_2_11_0)))
 (=> x_2_p $x2236)))
(assert
 (let (($x2239 (not z_2_12_0)))
 (=> x_2_p $x2239)))
(assert
 (let (($x2242 (not z_2_13_0)))
 (=> x_2_p $x2242)))
(assert
 (let (($x2245 (not z_2_14_0)))
 (=> x_2_p $x2245)))
(assert
 (let (($x2248 (not z_2_15_0)))
 (=> x_2_p $x2248)))
(assert
 (let (($x2251 (not z_2_16_0)))
 (=> x_2_p $x2251)))
(assert
 (let (($x2254 (not z_2_17_0)))
 (=> x_2_p $x2254)))
(assert
 (let (($x2257 (not z_2_18_0)))
 (=> x_2_p $x2257)))
(assert
 (let (($x2260 (not z_2_19_0)))
 (=> x_2_p $x2260)))
(assert
 (or x_2_p))
(assert
 (let (($x2000 (not x_2_->)))
 (let (($x1998 (not x_2_U)))
 (let (($x1996 (not x_2_v)))
 (let (($x1994 (not x_2_&)))
 (let (($x1992 (not x_2_X)))
 (let (($x1990 (not x_2_!)))
 (let (($x1988 (not x_2_F)))
 (let (($x1986 (not x_2_G)))
 (and $x1986 $x1988 $x1990 $x1992 $x1994 $x1996 $x1998 $x2000))))))))))
(check-sat)

